// SetCellsize(7.324e-9,7.324e-9,10e-9) // 15um/ 2048 
SetCellsize(14.65e-9,14.65e-9,10e-9) // 15um/ 1024
SetGridsize(1024,1024,2)


Msat  = 860e3
Aex   = 13e-12
alpha = 0.02
Ku1 = 5e2

setgeom(imageShape("hestesko_regulaer.png"))
saveas(geom,"geometry")

m = randommag()
relax()
saveas(m,"magnetization")